% seed = 0

mint = 48;
% maxt = 249;

nActs = 20;
dur = [0,17,14,15,15,12,6,8,13,16,19,18,11,12,16,13,13,13,18,0];

nSkills = 3;
sreq = [| 0,0,0,
	| 2,0,2,
	| 3,0,2,
	| 0,2,2,
	| 0,2,2,
	| 3,3,0,
	| 2,2,2,
	| 2,2,2,
	| 2,0,2,
	| 2,0,2,
	| 2,3,2,
	| 3,2,2,
	| 0,2,0,
	| 0,2,0,
	| 2,3,0,
	| 2,0,0,
	| 0,0,2,
	| 3,3,2,
	| 3,0,2,
	| 0,0,0, |];

% SumOfsreq = 83;

nResources = 10;
mastery = [| true,false,true,
	| true,false,false,
	| false,true,false,
	| false,true,false,
	| false,true,true,
	| false,false,true,
	| false,false,true,
	| true,false,false,
	| true,false,false,
	| false,true,false, |];

nPrecs = 31;
pred = [1,1,1,1,1,1,1,1,1,1,1,2,2,3,4,5,6,7,8,9,10,11,12,12,13,14,15,16,17,18,19];
succ = [2,3,4,5,6,7,8,9,13,15,19,12,14,10,20,6,20,18,11,20,20,20,17,16,20,20,18,20,20,20,20];

nUnrels = 142;
unpred = [2,2,2,2,2,2,2,2,2,2,2,2,2,3,3,3,3,3,3,3,3,3,3,3,3,3,3,3,4,4,4,4,4,4,4,4,4,4,4,4,4,4,4,5,5,5,5,5,5,5,5,5,5,5,5,5,6,6,6,6,6,6,6,6,6,6,6,6,6,7,7,7,7,7,7,7,7,7,7,7,8,8,8,8,8,8,8,8,8,8,9,9,9,9,9,9,9,9,9,9,10,10,10,10,10,10,10,10,10,11,11,11,11,11,11,11,11,12,12,12,12,12,13,13,13,13,13,13,14,14,14,14,14,15,15,15,16,16,16,17,17,18];
unsucc = [3,4,5,6,7,8,9,10,11,13,15,18,19,4,5,6,7,8,9,11,12,13,14,15,16,17,18,19,5,6,7,8,9,10,11,12,13,14,15,16,17,18,19,7,8,9,10,11,12,13,14,15,16,17,18,19,7,8,9,10,11,12,13,14,15,16,17,18,19,8,9,10,11,12,13,14,15,16,17,19,9,10,12,13,14,15,16,17,18,19,10,11,12,13,14,15,16,17,18,19,11,12,13,14,15,16,17,18,19,12,13,14,15,16,17,18,19,13,14,15,18,19,14,15,16,17,18,19,15,16,17,18,19,16,17,19,17,18,19,18,19,19];

USEFUL_RES = [{},
	{1,2,5,6,7,8,9},
	{1,2,5,6,7,8,9},
	{1,3,4,5,6,7,10},
	{1,3,4,5,6,7,10},
	{1,2,3,4,5,8,9,10},
	{1,2,3,4,5,6,7,8,9,10},
	{1,2,3,4,5,6,7,8,9,10},
	{1,2,5,6,7,8,9},
	{1,2,5,6,7,8,9},
	{1,2,3,4,5,6,7,8,9,10},
	{1,2,3,4,5,6,7,8,9,10},
	{3,4,5,10},
	{3,4,5,10},
	{1,2,3,4,5,8,9,10},
	{1,2,8,9},
	{1,5,6,7},
	{1,2,3,4,5,6,7,8,9,10},
	{1,2,5,6,7,8,9},
	{}];

POTENTIAL_ACT = [{2,3,4,5,6,7,8,9,10,11,12,15,16,17,18,19},
	{2,3,6,7,8,9,10,11,12,15,16,18,19},
	{4,5,6,7,8,11,12,13,14,15,18},
	{4,5,6,7,8,11,12,13,14,15,18},
	{2,3,4,5,6,7,8,9,10,11,12,13,14,15,17,18,19},
	{2,3,4,5,7,8,9,10,11,12,17,18,19},
	{2,3,4,5,7,8,9,10,11,12,17,18,19},
	{2,3,6,7,8,9,10,11,12,15,16,18,19},
	{2,3,6,7,8,9,10,11,12,15,16,18,19},
	{4,5,6,7,8,11,12,13,14,15,18}];
